32	0

0	1	2
3	1	3
3	1	4
10	1	5
10	2	6	9
3	1	7
1	1	8
7	1	10
8	1	10
7	1	11
8	1	12
9	2	13	14
7	1	16
2	1	15
2	1	16
9	1	17
8	1	18
8	1	19
2	1	20
8	2	21	22
7	1	23
1	1	23
4	1	24
2	1	25
7	2	26	27
6	1	28
2	1	28
8	2	29	30
5	1	31
3	1	31
5	1	32
0	0
